NAME 
ROWS
 N  OBJ
 L  R0      
 L  R1      
 L  R2      
 E  R3      
COLUMNS
    MARKER    'MARKER'                 'INTORG'
    I0(4)     OBJ       -986
    I0(4)     R0        -36
    I0(4)     R1        -284
    I0(4)     R2        -871
    I0(4)     R3        825
    I1(4)     OBJ       -265
    I1(4)     R0        -680
    I1(4)     R1        -200
    I1(4)     R2        -953
    I1(4)     R3        724
    I2(4)     OBJ       -139
    I2(4)     R0        -44
    I2(4)     R1        -108
    I2(4)     R2        -497
    I2(4)     R3        213
    I3(4)     OBJ       -686
    I3(4)     R0        -568
    I3(4)     R1        -198
    I3(4)     R2        -9
    I3(4)     R3        869
    I4(4)     OBJ       -19
    I4(4)     R0        -956
    I4(4)     R1        -213
    I4(4)     R2        -638
    I4(4)     R3        292
    I5(4)     OBJ       -225
    I5(4)     R0        -537
    I5(4)     R1        -187
    I5(4)     R2        -515
    I5(4)     R3        168
    I6(4)     OBJ       -637
    I6(4)     R0        -852
    I6(4)     R1        -503
    I6(4)     R2        -234
    I6(4)     R3        405
    I7(4)     OBJ       -174
    I7(4)     R0        -808
    I7(4)     R1        -655
    I7(4)     R2        -275
    I7(4)     R3        144
    I8(4)     OBJ       -301
    I8(4)     R0        -547
    I8(4)     R1        -967
    I8(4)     R2        -689
    I8(4)     R3        975
    I9(4)     OBJ       -551
    I9(4)     R0        -659
    I9(4)     R1        -232
    I9(4)     R2        -534
    I9(4)     R3        951
    I10(1)    R3        1
    MARKER    'MARKER'                 'INTEND'
RHS
    RHS1      R0        -2845
    RHS1      R1        -1935
    RHS1      R2        -2401
    RHS1      R3        2783
BOUNDS
 UP BND1      I0(4)     1
 UP BND1      I1(4)     1
 UP BND1      I2(4)     1
 UP BND1      I3(4)     1
 UP BND1      I4(4)     1
 UP BND1      I5(4)     1
 UP BND1      I6(4)     1
 UP BND1      I7(4)     1
 UP BND1      I8(4)     1
 UP BND1      I9(4)     1
 LI BND1      I10(1)    0
ENDATA
